5,7	0,0	5,4	19,2	0,0	0,0	0,0	0,0	0,0	15,8
10,2	10,3	0,0	8,0	12,6	0,0	0,0	13,7	0,0	0,0
0,0	0,0	14,1	0,0	17,8	13,5	0,0	0,0	17,6	0,0
10,7	0,0	13,6	0,0	0,0	0,0	5,8	0,0	0,0	0,0
0,0	19,0	0,0	18,4	12,2	0,0	0,0	17,3	0,0	0,0
0,0	15,2	11,2	0,0	12,1	18,3	0,0	0,0	11,0	0,0
0,0	8,8	0,0	18,1	0,0	0,0	16,9	0,0	0,0	5,2
10,4	0,0	18,7	0,0	0,0	0,0	0,0	0,0	0,0	15,7
0,0	7,9	0,0	18,4	16,2	0,0	0,0	6,2	0,0	0,0
0,0	0,0	14,1	0,0	0,0	19,5	7,1	0,0	0,0	17,4
									
3,8	4,8	2,6	2,8	4,8	3,7	2,9	4,5	3,7	3,1
